SAT problem/sat_in/bonus/00.wcnf
p wcnf 6 12 25
25 1 4 0
25 2 3 0
25 2 5 0
25 3 6 0
25 4 6 0
25 5 6 0
5 -1 0
4 -2 0
4 -3 0
4 -4 0
4 -5 0
3 -6 0
